26 4
45 99 69 22 66 26 29 41 64 98 24 57 44 33 81 83 20 95 84 99 99 15 15 82 53 80
26 49 90 46 62 10 99 36 85 90 38 29 65 46 43 80 29 40 76 51 75 41 91 87 84 24
68 65 10 79 29 50 87 49 55 55 56 57 28 53 99 80 87 12 61 79 21 58 24 27 27 29
44 69 85 49 85 64 27 35 49 29 73 48 36 71 47 43 84 69 32 84 89 99 93 37 92 47
